pr/lpsolve-precompiler/example/third_seq.lp
min: T;
T > T1;
T > T2;
T > T3;
T > T4;
1000 > d1 + d12;
10000 > d21 + d23 + d24;
Tzk2 = 1 * d23 + Trk2;
Trk2 > Tzk3 + -10000000 * x34;
Tzk3 = 1 * d24 + Trk3;
Trk3 > Tzk2 + -10000000 + 10000000 * x34;
Tz1o1 = 1 * d1;
Trk1 > Tz1o1;
Trk1 > Tzk2;
Trk1 > Tzk3;
Tzk1 = Trk1 + 2 * d12 + 2 * d21;
T1 > Tzk1 + 1000 + -1 * d12 + 1 * d21 + -1 * d1;
T2 > Tzk1 + 120000 + 12 * d12 + -12 * d21 + -12 * d23 + -12 * d24;
T3 > Tzk2 + 1 * d23;
T4 > Tzk3 + 2 * d24;
int x34, d1, d12, d21, d23, d24;