pr/lpsolve-precompiler/example/third_seq.out

Value of objective function: 12707.00000000

Actual values of the variables:
T                           12707
T1                          12707
T2                          12707
T3                          12707
T4                          12707
d1                           1000
d12                             0
d21                          1412
d23                          6353
d24                          2118
Tzk2                         6353
Trk2                            0
Tzk3                         8471
x34                             1
Trk3                         6353
Tz1o1                        1000
Trk1                         8471
Tzk1                        11295
